sat
(:max-memory         18.53
 :memory             18.43
 :nlsat-arith-var    3
 :nlsat-atoms        3
 :nlsat-bool-var     1
 :nlsat-clauses      3
 :nlsat-propagations 3
 :nlsat-stages       4
 :num-allocs         58191
 :rlimit-count       1504
 :time               0.00
 :total-time         0.01)
